0 33 39
1 41 43
2 46 50
3 35 52
4 39 53
5 43 54
6 48 53
7 40 52
8 48 50
9 40 49
10 43 52
11 44 48
12 39 48
13 37 45
14 41 44
15 37 46
16 40 45
17 41 41
18 33 38
19 34 40
20 38 38
21 33 38
22 33 36
23 20 34
24 29 31
25 18 30
26 20 28
27 16 23
28 13 21
29 25 28
30 24 27
31 29 29
32 26 27
33 26 27
34 22 26
35 14 24
36 13 23
37 13 20
38 10 19
39 15 17
40 13 13
41 12 11
42 5 6
43 3 8
44 8 9
45 11 10
46 8 9
47 11 10
48 7 8
49 10 10
50 4 10
51 7 8
52 5 5
53 6 7
54 5 5
55 3 3
56 4 3
57 1 1
58 1 2
59 1 1

